1160535.0
978
0 2 4 7 11 12 13 15 16 17 21 22 23 24 25 26 28 30 31 34 35 36 37 38 39 40 41 42 43 44 45 47 48 50 51 52 55 56 57 58 59 60 62 63 64 68 69 70 71 77 78 79 80 81 82 83 84 85 87 88 89 92 93 97 99 